%nprocshared=20
%mem=5GB
#p m062x/cc-pVTZ Opt=(ModRedun,Loose,maxcycles=900) Int(Grid=SG1) scf=(maxcycle=900) 

Gaussian input prepared by ASE

0 2
O                 2.9976000000        0.3663000000        0.1769000000
O                 1.9248000000       -0.3906000000        0.0865000000
C                -0.4655000000       -0.6331000000       -0.2947000000
C                -1.5084000000        0.3167000000        0.2666000000
H                 0.7698000000       -0.2923000000        0.1860000000
H                -0.4560000000       -0.5703000000       -1.4033000000
H                -0.7011000000       -1.6746000000        0.0097000000
H                -2.5133000000        0.0453000000       -0.1198000000
H                -1.2683000000        1.3570000000       -0.0370000000
H                -1.5133000000        0.2536000000        1.3749000000
H                 2.7338000000        1.2220000000       -0.2459000000

3 5 F
5 2 F
3 5 2 F

