%nprocshared=20
%mem=5GB
#p hf/6-31g* irc=(calcall) 

Gaussian input prepared by ASE

0 2
O                -2.5227511404        1.1385606495       -2.2114407524
O                -1.8513262404        0.3473012254       -3.0992003656
C                 0.5101256510        1.1552973480       -1.0230417072
C                 0.8140559452        0.1208203071       -0.1929720973
C                -0.5781658360        2.1115125157       -0.8811977374
C                 1.9746945873       -0.7927059908       -0.4980474064
C                 0.0679789427       -0.2042057999        1.0763830757
H                -1.8215853338       -0.5002419782       -2.6710164278
H                 1.1077471054        1.2652558017       -1.9123039593
H                -1.6078211791        1.6381513287       -1.5474411330
H                -0.4309060948        3.0478944683       -1.3989375818
H                -0.9972014367        2.2499016277        0.1032491280
H                 2.4769931445       -0.5164921153       -1.4174676881
H                 2.7067422658       -0.7697885591        0.3062481538
H                 1.6434795005       -1.8248822477       -0.5911227142
H                -0.7835493208        0.4389603006        1.2498780402
H                -0.2928445148       -1.2298678632        1.0503735075
H                 0.7287826679       -0.1265974139        1.9368796781



