%nprocshared=20
%mem=5GB
#p hf/6-31g* Opt=(ModRedun,Loose) Int(Grid=SG1) 

Gaussian input prepared by ASE

0 2
O                -2.6943000000       -0.0049000000        0.1334000000
O                -3.4761000000       -1.0578000000        0.0242000000
C                 0.3373000000        0.5562000000       -0.9850000000
C                 0.9880000000       -0.1118000000       -0.0102000000
C                -0.8219000000        1.4737000000       -0.7225000000
C                 0.5888000000        0.0224000000        1.4403000000
C                 2.1386000000       -1.0073000000       -0.3899000000
H                -2.9758000000       -1.7857000000        0.4720000000
H                 0.6556000000        0.4338000000       -2.0174000000
H                -1.8047000000        0.8090000000       -0.1650000000
H                -1.1838000000        1.9010000000       -1.6811000000
H                -0.5085000000        2.3076000000       -0.0602000000
H                 0.6792000000        1.0811000000        1.7621000000
H                -0.4591000000       -0.3171000000        1.5781000000
H                 1.2367000000       -0.5919000000        2.0994000000
H                 2.9280000000       -0.4105000000       -0.8941000000
H                 2.5877000000       -1.4978000000        0.4986000000
H                 1.7844000000       -1.7998000000       -1.0827000000

1 5 F
1 10 F
5 10 F

