%nprocshared=20
%mem=5GB
#p hf/6-31g* Opt=(ModRedun,Loose) Int(Grid=SG1) 

Gaussian input prepared by ASE

0 2
O                -3.1368208986        0.4488974484       -0.8475019746
O                -4.4483996941        0.5560103720       -0.8522109876
C                 0.3373000000        0.5562000000       -0.9850000000
C                 0.9880000000       -0.1118000000       -0.0102000000
C                -0.8219000000        1.4737000000       -0.7225000000
C                 1.0599872337        0.4232138998        1.4004376201
C                 1.6556308721       -1.4190828692       -0.3496896441
H                -4.6837084054        0.6797454341       -1.8061411658
H                 0.6556000000        0.4338000000       -2.0174000000
H                -1.9488339409        0.8083866013       -0.7993515086
H                -0.8369170821        2.2825268820       -1.4827923268
H                -0.7254916578        1.9354362599        0.2823657213
H                 1.5578941352        1.4155059677        1.4047107023
H                 0.0374570292        0.5214830812        1.8212922849
H                 1.6390001564       -0.2528144076        2.0632207468
H                 2.4228252884       -1.2555113726       -1.1359449036
H                 2.1542118027       -1.8673384852        0.5347295259
H                 0.8990676616       -2.1403225259       -0.7250710450

1 5 F
1 10 F
5 10 F

