%nprocshared=20
%mem=5GB
#p m062x/6-311+g(2df,2p) opt=(ts,calcfc,noeigentest) freq 

Gaussian input prepared by ASE

0 2
C                -1.1332000000        0.3799000000       -0.5176000000
C                -0.0430000000        1.1638000000        0.2035000000
C                -1.3809000000       -0.9653000000        0.1565000000
H                -0.8238000000        0.2103000000       -1.5712000000
H                -2.0741000000        0.9714000000       -0.5167000000
H                 1.1265000000        0.4528000000        0.1977000000
H                 0.1247000000        2.1316000000       -0.3144000000
H                -0.3441000000        1.3686000000        1.2531000000
H                -2.1770000000       -1.5135000000       -0.3900000000
H                -0.4551000000       -1.5793000000        0.1451000000
H                -1.7096000000       -0.8159000000        1.2071000000
O                 2.9114000000       -1.0580000000        0.1822000000
O                 2.1451000000       -0.0172000000       -0.0655000000
H                 3.8330000000       -0.7293000000        0.0300000000



