%nprocshared=20
%mem=5GB
#p m062x/6-311+g(2df,2p) opt=(verytight,gdiis) freq IOP(2/16=3) 

Gaussian input prepared by ASE

0 2
C                 1.9263000000       -0.0553000000       -0.3487000000
C                -1.5421000000        0.0984000000       -0.3225000000
C                 0.6975000000       -0.4816000000        0.4029000000
C                -0.3551000000        0.5727000000        0.5097000000
H                 2.3104000000       -0.8724000000       -0.9912000000
H                 1.8205000000        0.8998000000       -0.8834000000
H                -2.2924000000        0.8909000000       -0.4591000000
H                -1.9697000000       -0.7643000000        0.2489000000
H                -1.1562000000       -0.3229000000       -1.2686000000
H                 0.3353000000       -1.4345000000       -0.0454000000
H                 1.0354000000       -0.7343000000        1.4364000000
H                -0.0525000000        1.5682000000        0.1681000000
H                -0.7574000000        0.6353000000        1.5529000000



