%nprocshared=20
%mem=5GB
# m062x/6-311+g(2df,2p) Opt=(ModRedun,Loose) Int(Grid=SG1)

CCCC+[O]O_OO+[CH2]CCC

0   2
C        -0.212000  -0.842200   0.109000
C        -1.586000  -0.304300   0.396800
C         0.748000  -0.302400   1.095700
C        -2.072100   0.661700  -0.657100
H         0.035100  -0.540000  -0.940000
H        -0.197500  -1.959100   0.181600
H        -1.617800   0.157200   1.394200
H        -2.294600  -1.160800   0.393200
H         1.846400  -0.087400   0.322500
H         0.595400   0.718300   1.434100
H         1.189100  -1.002700   1.798800
H        -2.243600   0.137400  -1.611900
H        -3.056900   1.045200  -0.308100
H        -1.364600   1.498500  -0.772600
O         3.797900   0.474400  -1.109600
O         2.834800   0.133700  -0.264100
H         3.598500   1.372500  -1.462500

3 9 F
3 16 F
9 16 F

