%nprocshared=20
%mem=5GB
#p m062x/6-311+g(2df,2p) opt=(ts,calcfc,noeigentest,ModRedun) 

Gaussian input prepared by ASE

0 2
O                 2.5031976489        0.1641286523       -0.7410628387
O                 2.7963131010        0.6027686607        0.5458969748
C                 0.8026442345       -1.5496775941       -0.0899021213
C                -1.9661822727        1.1674137708        0.0961891304
C                -0.5139219634       -0.8722229795       -0.3230849038
C                -0.5765861508        0.5559314420        0.2183413404
H                 2.1766209312        1.3312724259        0.6764115909
H                 1.7737774217       -0.7113060973       -0.5667857385
H                 1.1603540790       -1.5756598837        0.9375940161
H                 0.9897388359       -2.4665911154       -0.6414627764
H                -1.9836996648        2.1904079645        0.4693720177
H                -2.6971781903        0.5908015350        0.6623012830
H                -2.2926506723        1.1881253366       -0.9444946523
H                -1.3041831805       -1.4662603359        0.1549958225
H                -0.7477458774       -0.8690643319       -1.3906199438
H                -0.2646766854        0.5541482300        1.2673275862
H                 0.1441784052        1.1657843199       -0.3308167872

2 4 F
2 5 F
2 6 F
2 7 F
2 9 F
2 10 F
2 11 F
2 12 F
2 13 F
2 14 F
2 15 F
2 16 F
2 17 F
4 5 F
4 6 F
4 7 F
4 9 F
4 10 F
4 11 F
4 12 F
4 13 F
4 14 F
4 15 F
4 16 F
4 17 F
5 6 F
5 7 F
5 9 F
5 10 F
5 11 F
5 12 F
5 13 F
5 14 F
5 15 F
5 16 F
5 17 F
6 7 F
6 9 F
6 10 F
6 11 F
6 12 F
6 13 F
6 14 F
6 15 F
6 16 F
6 17 F
7 9 F
7 10 F
7 11 F
7 12 F
7 13 F
7 14 F
7 15 F
7 16 F
7 17 F
9 10 F
9 11 F
9 12 F
9 13 F
9 14 F
9 15 F
9 16 F
9 17 F
10 11 F
10 12 F
10 13 F
10 14 F
10 15 F
10 16 F
10 17 F
11 12 F
11 13 F
11 14 F
11 15 F
11 16 F
11 17 F
12 13 F
12 14 F
12 15 F
12 16 F
12 17 F
13 14 F
13 15 F
13 16 F
13 17 F
14 15 F
14 16 F
14 17 F
15 16 F
15 17 F
16 17 F

